71
100
80	9
79	6
78	6
77	7
76	4
75	9
74	9
73	3
72	8
71	9
70	11
69	8
68	9
67	10
66	9
65	8
64	4
63	5
62	3
61	11
60	2
59	8
58	12
57	7
56	7
55	8
54	4
53	8
52	6
51	14
50	8
49	7
48	9
47	3
46	3
45	13
44	7
43	4
42	12
41	8
40	11
39	6
38	9
37	7
36	5
35	5
34	2
33	5
32	4
31	14
30	4
29	8
28	5
27	9
26	5
25	6
24	10
23	4
22	2
21	5
20	1
19	12
18	5
17	11
16	7
15	6
14	6
13	7
12	10
11	8
10	3
